; --full-saturate-quant --inst-when=full-last-call --inst-no-entail --term-db-mode=relevant --multi-trigger-linear --no-stats --random-seed=1 --lang=smt2 --tlimit 300000
(set-option :produce-unsat-cores true)
(set-logic AUFLIRA)
(declare-sort Num$ 0)
(declare-sort Num_num_fun$ 0)
(declare-sort Real_filter$ 0)
(declare-sort Num_bool_fun$ 0)
(declare-sort Real_bool_fun$ 0)
(declare-sort Real_real_fun$ 0)
(declare-sort Real_real_fun_set$ 0)
(declare-sort Real_real_bool_fun_fun$ 0)
(declare-sort Real_real_fun_bool_fun$ 0)
(declare-sort Real_real_real_fun_fun$ 0)
(declare-fun ln$ () Real_real_fun$)
(declare-fun uu$ () Real_real_fun$)
(declare-fun abs$ () Real_real_fun$)
(declare-fun exp$ () Real_real_fun$)
(declare-fun one$ () Num$)
(declare-fun uua$ (Real Real_real_fun$ Real_real_fun$) Real_real_fun$)
(declare-fun uub$ (Real_real_real_fun_fun$ Real_real_fun$) Real_real_fun$)
(declare-fun uuc$ (Real_real_fun$ Real_real_real_fun_fun$) Real_real_fun$)
(declare-fun uud$ (Real_real_fun$) Real_real_fun$)
(declare-fun uue$ (Real_real_fun$) Real_real_fun$)
(declare-fun uuf$ () Real_bool_fun$)
(declare-fun uug$ () Real_real_bool_fun_fun$)
(declare-fun uuh$ () Real_real_bool_fun_fun$)
(declare-fun uui$ (Real_real_fun$ Real_real_fun$) Real_real_fun$)
(declare-fun uuj$ (Real_real_fun_set$) Real_real_fun_bool_fun$)
(declare-fun uuk$ () Real_real_fun$)
(declare-fun uul$ (Real_real_fun$ Real_real_fun$) Real_real_fun$)
(declare-fun uum$ (Real_real_fun$ Real_real_fun$) Real_real_fun$)
(declare-fun uun$ (Real_real_fun$ Real_real_fun$) Real_bool_fun$)
(declare-fun uuo$ (Real_real_fun$ Real_real_fun$) Real_real_fun$)
(declare-fun uup$ () Real_real_real_fun_fun$)
(declare-fun bigo$ (Real_filter$ Real_real_fun$) Real_real_fun_set$)
(declare-fun bit0$ (Num$) Num$)
(declare-fun bit1$ (Num$) Num$)
(declare-fun less$ (Num$ Num$) Bool)
(declare-fun plus$ (Num$ Num$) Num$)
(declare-fun times$ () Real_real_real_fun_fun$)
(declare-fun at_top$ () Real_filter$)
(declare-fun divide$ () Real_real_real_fun_fun$)
(declare-fun member$ (Real_real_fun$ Real_real_fun_set$) Bool)
(declare-fun times$a (Num$) Num_num_fun$)
(declare-fun collect$ (Real_real_fun_bool_fun$) Real_real_fun_set$)
(declare-fun fun_app$ (Real_bool_fun$ Real) Bool)
(declare-fun less_eq$ (Num$) Num_bool_fun$)
(declare-fun numeral$ (Num$) Real)
(declare-fun fun_app$a (Real_real_fun$ Real) Real)
(declare-fun fun_app$b (Real_real_real_fun_fun$ Real) Real_real_fun$)
(declare-fun fun_app$c (Real_real_bool_fun_fun$ Real) Real_bool_fun$)
(declare-fun fun_app$d (Real_real_fun_bool_fun$ Real_real_fun$) Bool)
(declare-fun fun_app$e (Num_bool_fun$ Num$) Bool)
(declare-fun fun_app$f (Num_num_fun$ Num$) Num$)
(declare-fun less_eq$a (Real_real_fun_set$ Real_real_fun_set$) Bool)
(declare-fun less_eq$b (Real_filter$ Real_filter$) Bool)
(declare-fun filterlim$ (Real_real_fun$ Real_filter$ Real_filter$) Bool)
(declare-fun primes_pi$ () Real_real_fun$)
(declare-fun eventually$ (Real_bool_fun$ Real_filter$) Bool)
(assert (! (forall ((?v0 Real)) (! (= (fun_app$ uuf$ ?v0) (<= (ite (< (fun_app$a primes_pi$ ?v0) 0.0) (- (fun_app$a primes_pi$ ?v0)) (fun_app$a primes_pi$ ?v0)) (fun_app$a (fun_app$b times$ (* 3.0 (+ (fun_app$a exp$ (- 1.0)) (fun_app$a ln$ 2.0)))) (ite (< (fun_app$a (fun_app$b divide$ ?v0) (fun_app$a ln$ ?v0)) 0.0) (- (fun_app$a (fun_app$b divide$ ?v0) (fun_app$a ln$ ?v0))) (fun_app$a (fun_app$b divide$ ?v0) (fun_app$a ln$ ?v0)))))) :pattern ((fun_app$ uuf$ ?v0)))) :named a0))
(assert (! (forall ((?v0 Real)) (! (= (fun_app$a uu$ ?v0) (fun_app$a (fun_app$b divide$ ?v0) (fun_app$a ln$ ?v0))) :pattern ((fun_app$a uu$ ?v0)))) :named a1))
(assert (! (forall ((?v0 Real_real_fun$) (?v1 Real)) (! (= (fun_app$a (uud$ ?v0) ?v1) (ite (< (fun_app$a ?v0 ?v1) 0.0) (- (fun_app$a ?v0 ?v1)) (fun_app$a ?v0 ?v1))) :pattern ((fun_app$a (uud$ ?v0) ?v1)))) :named a2))
(assert (! (forall ((?v0 Real) (?v1 Real)) (! (= (fun_app$ (fun_app$c uuh$ ?v0) ?v1) (<= ?v0 ?v1)) :pattern ((fun_app$ (fun_app$c uuh$ ?v0) ?v1)))) :named a3))
(assert (! (forall ((?v0 Real) (?v1 Real)) (! (= (fun_app$ (fun_app$c uug$ ?v0) ?v1) (<= ?v1 ?v0)) :pattern ((fun_app$ (fun_app$c uug$ ?v0) ?v1)))) :named a4))
(assert (! (forall ((?v0 Real_real_fun_set$) (?v1 Real_real_fun$)) (! (= (fun_app$d (uuj$ ?v0) ?v1) (member$ ?v1 ?v0)) :pattern ((fun_app$d (uuj$ ?v0) ?v1)))) :named a5))
(assert (! (forall ((?v0 Real_real_fun$) (?v1 Real)) (! (= (fun_app$a (uue$ ?v0) ?v1) (- (fun_app$a ?v0 ?v1))) :pattern ((fun_app$a (uue$ ?v0) ?v1)))) :named a6))
(assert (! (forall ((?v0 Real_real_real_fun_fun$) (?v1 Real_real_fun$) (?v2 Real)) (! (= (fun_app$a (uub$ ?v0 ?v1) ?v2) (fun_app$a (fun_app$b ?v0 ?v2) (fun_app$a ?v1 ?v2))) :pattern ((fun_app$a (uub$ ?v0 ?v1) ?v2)))) :named a7))
(assert (! (forall ((?v0 Real_real_fun$) (?v1 Real_real_real_fun_fun$) (?v2 Real)) (! (= (fun_app$a (uuc$ ?v0 ?v1) ?v2) (fun_app$a (fun_app$b ?v1 ?v2) (fun_app$a ?v0 ?v2))) :pattern ((fun_app$a (uuc$ ?v0 ?v1) ?v2)))) :named a8))
(assert (! (forall ((?v0 Real_real_fun$) (?v1 Real_real_fun$) (?v2 Real)) (! (= (fun_app$a (uum$ ?v0 ?v1) ?v2) (fun_app$a (fun_app$b times$ (fun_app$a ?v0 ?v2)) (fun_app$a ?v1 ?v2))) :pattern ((fun_app$a (uum$ ?v0 ?v1) ?v2)))) :named a9))
(assert (! (forall ((?v0 Real_real_fun$) (?v1 Real_real_fun$) (?v2 Real)) (! (= (fun_app$a (uul$ ?v0 ?v1) ?v2) (fun_app$a (fun_app$b times$ (fun_app$a ?v1 ?v2)) (fun_app$a ?v0 ?v2))) :pattern ((fun_app$a (uul$ ?v0 ?v1) ?v2)))) :named a10))
(assert (! (forall ((?v0 Real_real_fun$) (?v1 Real_real_fun$) (?v2 Real)) (! (= (fun_app$a (uuo$ ?v0 ?v1) ?v2) (+ (fun_app$a ?v0 ?v2) (fun_app$a ?v1 ?v2))) :pattern ((fun_app$a (uuo$ ?v0 ?v1) ?v2)))) :named a11))
(assert (! (forall ((?v0 Real_real_fun$) (?v1 Real_real_fun$) (?v2 Real)) (! (= (fun_app$ (uun$ ?v0 ?v1) ?v2) (= (fun_app$a ?v0 ?v2) (fun_app$a ?v1 ?v2))) :pattern ((fun_app$ (uun$ ?v0 ?v1) ?v2)))) :named a12))
(assert (! (forall ((?v0 Real_real_fun$) (?v1 Real_real_fun$) (?v2 Real)) (! (= (fun_app$a (uui$ ?v0 ?v1) ?v2) (fun_app$a ?v0 (fun_app$a ?v1 ?v2))) :pattern ((fun_app$a (uui$ ?v0 ?v1) ?v2)))) :named a13))
(assert (! (forall ((?v0 Real) (?v1 Real_real_fun$) (?v2 Real_real_fun$) (?v3 Real)) (! (= (fun_app$a (uua$ ?v0 ?v1 ?v2) ?v3) (ite (= ?v3 ?v0) (fun_app$a ?v1 ?v3) (fun_app$a ?v2 ?v3))) :pattern ((fun_app$a (uua$ ?v0 ?v1 ?v2) ?v3)))) :named a14))
(assert (! (forall ((?v0 Real) (?v1 Real)) (! (= (fun_app$a (fun_app$b uup$ ?v0) ?v1) ?v0) :pattern ((fun_app$a (fun_app$b uup$ ?v0) ?v1)))) :named a15))
(assert (! (forall ((?v0 Real)) (! (= (fun_app$a uuk$ ?v0) 1.0) :pattern ((fun_app$a uuk$ ?v0)))) :named a16))
(assert (! (not (member$ primes_pi$ (bigo$ at_top$ uu$))) :named a17))
(assert (! (forall ((?v0 Real) (?v1 Real_real_fun$) (?v2 Real_real_fun$)) (= (bigo$ at_top$ (uua$ ?v0 ?v1 ?v2)) (bigo$ at_top$ ?v2))) :named a18))
(assert (! (member$ primes_pi$ (bigo$ at_top$ uu$)) :named a19))
(assert (! (filterlim$ primes_pi$ at_top$ at_top$) :named a20))
(assert (! (forall ((?v0 Real_real_fun$) (?v1 Real_filter$) (?v2 Real_real_real_fun_fun$) (?v3 Real_real_fun$) (?v4 Real_real_fun$)) (=> (and (member$ ?v0 (bigo$ ?v1 (uub$ ?v2 ?v3))) (and (member$ ?v3 (bigo$ ?v1 ?v4)) (forall ((?v5 Real_real_fun$) (?v6 Real_real_fun$)) (=> (member$ ?v5 (bigo$ ?v1 ?v6)) (member$ (uub$ ?v2 ?v5) (bigo$ ?v1 (uub$ ?v2 ?v6))))))) (member$ ?v0 (bigo$ ?v1 (uub$ ?v2 ?v4))))) :named a21))
(assert (! (forall ((?v0 Real_real_fun$) (?v1 Real_filter$) (?v2 Real_real_fun$) (?v3 Real_real_real_fun_fun$) (?v4 Real_real_fun$)) (=> (and (member$ ?v0 (bigo$ ?v1 ?v2)) (and (member$ (uuc$ ?v2 ?v3) (bigo$ ?v1 ?v4)) (forall ((?v5 Real_real_fun$) (?v6 Real_real_fun$)) (=> (member$ ?v5 (bigo$ ?v1 ?v6)) (member$ (uub$ ?v3 ?v5) (bigo$ ?v1 (uub$ ?v3 ?v6))))))) (member$ (uuc$ ?v0 ?v3) (bigo$ ?v1 ?v4)))) :named a22))
(assert (! (forall ((?v0 Real_filter$) (?v1 Real_real_fun$)) (= (bigo$ ?v0 (uud$ ?v1)) (bigo$ ?v0 ?v1))) :named a23))
(assert (! (forall ((?v0 Real_real_fun$) (?v1 Real_filter$) (?v2 Real_real_fun$)) (= (member$ (uud$ ?v0) (bigo$ ?v1 ?v2)) (member$ ?v0 (bigo$ ?v1 ?v2)))) :named a24))
(assert (! (<= (fun_app$a (fun_app$b divide$ 56.0) 81.0) (fun_app$a ln$ 2.0)) :named a25))
(assert (! (forall ((?v0 Real_filter$) (?v1 Real_real_fun$)) (= (bigo$ ?v0 (uue$ ?v1)) (bigo$ ?v0 ?v1))) :named a26))
(assert (! (forall ((?v0 Real_real_fun$) (?v1 Real_filter$) (?v2 Real_real_fun$)) (= (member$ (uue$ ?v0) (bigo$ ?v1 ?v2)) (member$ ?v0 (bigo$ ?v1 ?v2)))) :named a27))
(assert (! (forall ((?v0 Real) (?v1 Real)) (=> (<= ?v0 ?v1) (<= (fun_app$a primes_pi$ ?v0) (fun_app$a primes_pi$ ?v1)))) :named a28))
(assert (! (eventually$ uuf$ at_top$) :named a29))
(assert (! (forall ((?v0 Real)) (<= ?v0 ?v0)) :named a30))
(assert (! (forall ((?v0 Real) (?v1 Real) (?v2 Real)) (=> (and (<= ?v0 ?v1) (<= ?v1 ?v2)) (<= ?v0 ?v2))) :named a31))
(assert (! (forall ((?v0 Real) (?v1 Real)) (=> (not (<= ?v0 ?v1)) (<= ?v1 ?v0))) :named a32))
(assert (! (forall ((?v0 Real) (?v1 Real) (?v2 Real)) (=> (and (<= ?v0 ?v1) (<= ?v2 ?v0)) (<= ?v2 ?v1))) :named a33))
(assert (! (forall ((?v0 Real) (?v1 Real)) (=> (not (<= ?v0 ?v1)) (<= ?v1 ?v0))) :named a34))
(assert (! (=> (and (=> (= uug$ uuh$) false) (=> (= uug$ uug$) false)) false) :named a35))
(assert (! (or (= uug$ uuh$) (= uug$ uug$)) :named a36))
(assert (! (=> (and (=> (= uuh$ uuh$) false) (=> (= uuh$ uug$) false)) false) :named a37))
(assert (! (or (= uuh$ uuh$) (= uuh$ uug$)) :named a38))
(assert (! (forall ((?v0 Real_real_fun$) (?v1 Real_filter$) (?v2 Real_real_fun$) (?v3 Real_real_fun$) (?v4 Real_filter$)) (=> (and (member$ ?v0 (bigo$ ?v1 ?v2)) (filterlim$ ?v3 ?v1 ?v4)) (member$ (uui$ ?v0 ?v3) (bigo$ ?v4 (uui$ ?v2 ?v3))))) :named a39))
(assert (! (forall ((?v0 Real_real_fun$) (?v1 Real_filter$) (?v2 Real_real_fun$) (?v3 Real_real_fun$)) (=> (and (member$ ?v0 (bigo$ ?v1 ?v2)) (member$ ?v2 (bigo$ ?v1 ?v3))) (member$ ?v0 (bigo$ ?v1 ?v3)))) :named a40))
(assert (! (forall ((?v0 Real_real_fun$) (?v1 Real_filter$)) (member$ ?v0 (bigo$ ?v1 ?v0))) :named a41))
(assert (! (forall ((?v0 Num$)) (= (fun_app$a abs$ (- (numeral$ ?v0))) (numeral$ ?v0))) :named a42))
(assert (! (forall ((?v0 Num$) (?v1 Num$)) (= (<= (- (numeral$ ?v0)) (- (numeral$ ?v1))) (fun_app$e (less_eq$ ?v1) ?v0))) :named a43))
(assert (! (<= (fun_app$a ln$ 2.0) (fun_app$a (fun_app$b divide$ 25.0) 36.0)) :named a44))
(assert (! (forall ((?v0 Num$) (?v1 Num$)) (= (= (numeral$ ?v0) (numeral$ ?v1)) (= ?v0 ?v1))) :named a45))
(assert (! (forall ((?v0 Real_real_fun$) (?v1 Real_real_fun_bool_fun$)) (= (member$ ?v0 (collect$ ?v1)) (fun_app$d ?v1 ?v0))) :named a46))
(assert (! (forall ((?v0 Real_real_fun_set$)) (= (collect$ (uuj$ ?v0)) ?v0)) :named a47))
(assert (! (forall ((?v0 Real_real_fun_bool_fun$) (?v1 Real_real_fun_bool_fun$)) (=> (forall ((?v2 Real_real_fun$)) (= (fun_app$d ?v0 ?v2) (fun_app$d ?v1 ?v2))) (= (collect$ ?v0) (collect$ ?v1)))) :named a48))
(assert (! (forall ((?v0 Num$) (?v1 Num$)) (= (= (bit0$ ?v0) (bit0$ ?v1)) (= ?v0 ?v1))) :named a49))
(assert (! (forall ((?v0 Num$) (?v1 Num$)) (= (= (bit0$ ?v0) (bit0$ ?v1)) (= ?v0 ?v1))) :named a50))
(assert (! (forall ((?v0 Real)) (= (- (- ?v0)) ?v0)) :named a51))
(assert (! (forall ((?v0 Num$) (?v1 Num$)) (= (= (bit1$ ?v0) (bit1$ ?v1)) (= ?v0 ?v1))) :named a52))
(assert (! (forall ((?v0 Num$) (?v1 Num$)) (= (= (bit1$ ?v0) (bit1$ ?v1)) (= ?v0 ?v1))) :named a53))
(assert (! (forall ((?v0 Real_real_fun$) (?v1 Real_filter$) (?v2 Real_real_fun$)) (=> (member$ ?v0 (bigo$ ?v1 ?v2)) (less_eq$a (bigo$ ?v1 ?v0) (bigo$ ?v1 ?v2)))) :named a54))
(assert (! (forall ((?v0 Real)) (= (* 1.0 ?v0) ?v0)) :named a55))
(assert (! (forall ((?v0 Real)) (= (* ?v0 1.0) ?v0)) :named a56))
(assert (! (forall ((?v0 Real) (?v1 Real)) (= (<= (- ?v0) (- ?v1)) (<= ?v1 ?v0))) :named a57))
(assert (! (forall ((?v0 Num$) (?v1 Num$) (?v2 Real)) (= (fun_app$a (fun_app$b times$ (numeral$ ?v0)) (fun_app$a (fun_app$b times$ (numeral$ ?v1)) ?v2)) (fun_app$a (fun_app$b times$ (numeral$ (fun_app$f (times$a ?v0) ?v1))) ?v2))) :named a58))
(assert (! (forall ((?v0 Num$) (?v1 Num$)) (= (fun_app$a (fun_app$b times$ (numeral$ ?v0)) (numeral$ ?v1)) (numeral$ (fun_app$f (times$a ?v0) ?v1)))) :named a59))
(assert (! (forall ((?v0 Real) (?v1 Real)) (= (fun_app$a (fun_app$b times$ (- ?v0)) ?v1) (- (fun_app$a (fun_app$b times$ ?v0) ?v1)))) :named a60))
(assert (! (forall ((?v0 Real) (?v1 Real)) (= (fun_app$a (fun_app$b times$ ?v0) (- ?v1)) (- (fun_app$a (fun_app$b times$ ?v0) ?v1)))) :named a61))
(assert (! (forall ((?v0 Num$) (?v1 Num$) (?v2 Real)) (= (+ (numeral$ ?v0) (+ (numeral$ ?v1) ?v2)) (+ (numeral$ (plus$ ?v0 ?v1)) ?v2))) :named a62))
(assert (! (forall ((?v0 Num$) (?v1 Num$)) (= (+ (numeral$ ?v0) (numeral$ ?v1)) (numeral$ (plus$ ?v0 ?v1)))) :named a63))
(assert (! (forall ((?v0 Real) (?v1 Real)) (= (- (+ ?v0 ?v1)) (+ (- ?v0) (- ?v1)))) :named a64))
(assert (! (forall ((?v0 Num$) (?v1 Num$)) (= (= (- (numeral$ ?v0)) (- (numeral$ ?v1))) (= ?v0 ?v1))) :named a65))
(assert (! (forall ((?v0 Num$)) (= (= one$ (bit0$ ?v0)) false)) :named a66))
(assert (! (forall ((?v0 Num$)) (= (= (bit0$ ?v0) one$) false)) :named a67))
(assert (! (forall ((?v0 Num$) (?v1 Num$)) (= (= (bit0$ ?v0) (bit1$ ?v1)) false)) :named a68))
(assert (! (forall ((?v0 Num$) (?v1 Num$)) (= (= (bit1$ ?v0) (bit0$ ?v1)) false)) :named a69))
(assert (! (forall ((?v0 Num$)) (= (fun_app$a abs$ (numeral$ ?v0)) (numeral$ ?v0))) :named a70))
(assert (! (forall ((?v0 Num$)) (= (= one$ (bit1$ ?v0)) false)) :named a71))
(assert (! (forall ((?v0 Num$)) (= (= (bit1$ ?v0) one$) false)) :named a72))
(assert (! (forall ((?v0 Num$) (?v1 Num$)) (! (= (fun_app$e (less_eq$ (bit0$ ?v0)) (bit0$ ?v1)) (fun_app$e (less_eq$ ?v0) ?v1)) :pattern ((fun_app$e (less_eq$ (bit0$ ?v0)) (bit0$ ?v1))))) :named a73))
(assert (! (forall ((?v0 Num$)) (! (= (fun_app$e (less_eq$ one$) ?v0) true) :pattern ((fun_app$e (less_eq$ one$) ?v0)))) :named a74))
(assert (! (forall ((?v0 Num$) (?v1 Num$)) (! (= (fun_app$e (less_eq$ (bit1$ ?v0)) (bit1$ ?v1)) (fun_app$e (less_eq$ ?v0) ?v1)) :pattern ((fun_app$e (less_eq$ (bit1$ ?v0)) (bit1$ ?v1))))) :named a75))
(assert (! (forall ((?v0 Real) (?v1 Real) (?v2 Num$)) (= (fun_app$a (fun_app$b times$ (+ ?v0 ?v1)) (numeral$ ?v2)) (+ (fun_app$a (fun_app$b times$ ?v0) (numeral$ ?v2)) (fun_app$a (fun_app$b times$ ?v1) (numeral$ ?v2))))) :named a76))
(assert (! (forall ((?v0 Num$) (?v1 Real) (?v2 Real)) (= (fun_app$a (fun_app$b times$ (numeral$ ?v0)) (+ ?v1 ?v2)) (+ (fun_app$a (fun_app$b times$ (numeral$ ?v0)) ?v1) (fun_app$a (fun_app$b times$ (numeral$ ?v0)) ?v2)))) :named a77))
(assert (! (forall ((?v0 Real)) (= (* ?v0 (- 1.0)) (- ?v0))) :named a78))
(assert (! (forall ((?v0 Real)) (= (* (- 1.0) ?v0) (- ?v0))) :named a79))
(assert (! (forall ((?v0 Num$) (?v1 Num$)) (= (fun_app$a (fun_app$b times$ (- (numeral$ ?v0))) (- (numeral$ ?v1))) (numeral$ (fun_app$f (times$a ?v0) ?v1)))) :named a80))
(assert (! (forall ((?v0 Num$) (?v1 Num$)) (= (fun_app$a (fun_app$b times$ (- (numeral$ ?v0))) (numeral$ ?v1)) (- (numeral$ (fun_app$f (times$a ?v0) ?v1))))) :named a81))
(assert (! (forall ((?v0 Num$) (?v1 Num$)) (= (fun_app$a (fun_app$b times$ (numeral$ ?v0)) (- (numeral$ ?v1))) (- (numeral$ (fun_app$f (times$a ?v0) ?v1))))) :named a82))
(assert (! (forall ((?v0 Num$) (?v1 Num$) (?v2 Real)) (= (fun_app$a (fun_app$b times$ (- (numeral$ ?v0))) (fun_app$a (fun_app$b times$ (numeral$ ?v1)) ?v2)) (fun_app$a (fun_app$b times$ (- (numeral$ (fun_app$f (times$a ?v0) ?v1)))) ?v2))) :named a83))
(assert (! (forall ((?v0 Num$) (?v1 Num$) (?v2 Real)) (= (fun_app$a (fun_app$b times$ (numeral$ ?v0)) (fun_app$a (fun_app$b times$ (- (numeral$ ?v1))) ?v2)) (fun_app$a (fun_app$b times$ (- (numeral$ (fun_app$f (times$a ?v0) ?v1)))) ?v2))) :named a84))
(assert (! (forall ((?v0 Num$) (?v1 Num$) (?v2 Real)) (= (fun_app$a (fun_app$b times$ (- (numeral$ ?v0))) (fun_app$a (fun_app$b times$ (- (numeral$ ?v1))) ?v2)) (fun_app$a (fun_app$b times$ (numeral$ (fun_app$f (times$a ?v0) ?v1))) ?v2))) :named a85))
(assert (! (forall ((?v0 Num$)) (= (= 1.0 (numeral$ ?v0)) (= one$ ?v0))) :named a86))
(assert (! (forall ((?v0 Num$)) (= (= (numeral$ ?v0) 1.0) (= ?v0 one$))) :named a87))
(assert (! (forall ((?v0 Num$) (?v1 Num$) (?v2 Real)) (= (+ (- (numeral$ ?v0)) (+ (- (numeral$ ?v1)) ?v2)) (+ (- (numeral$ (plus$ ?v0 ?v1))) ?v2))) :named a88))
(assert (! (forall ((?v0 Num$) (?v1 Num$)) (= (+ (- (numeral$ ?v0)) (- (numeral$ ?v1))) (- (+ (numeral$ ?v0) (numeral$ ?v1))))) :named a89))
(assert (! (= (fun_app$a abs$ (- 1.0)) 1.0) :named a90))
(assert (! (forall ((?v0 Num$) (?v1 Num$)) (= (<= (numeral$ ?v0) (numeral$ ?v1)) (fun_app$e (less_eq$ ?v0) ?v1))) :named a91))
(assert (! (forall ((?v0 Num$)) (! (= (fun_app$e (less_eq$ (bit0$ ?v0)) one$) false) :pattern ((bit0$ ?v0)))) :named a92))
(assert (! (forall ((?v0 Num$) (?v1 Num$)) (! (= (fun_app$e (less_eq$ (bit0$ ?v0)) (bit1$ ?v1)) (fun_app$e (less_eq$ ?v0) ?v1)) :pattern ((fun_app$e (less_eq$ (bit0$ ?v0)) (bit1$ ?v1))))) :named a93))
(assert (! (forall ((?v0 Num$)) (! (= (fun_app$e (less_eq$ (bit1$ ?v0)) one$) false) :pattern ((bit1$ ?v0)))) :named a94))
(assert (! (forall ((?v0 Real) (?v1 Num$) (?v2 Real)) (= (<= (fun_app$a (fun_app$b divide$ ?v0) (numeral$ ?v1)) ?v2) (<= ?v0 (fun_app$a (fun_app$b times$ ?v2) (numeral$ ?v1))))) :named a95))
(assert (! (forall ((?v0 Real) (?v1 Real) (?v2 Num$)) (= (<= ?v0 (fun_app$a (fun_app$b divide$ ?v1) (numeral$ ?v2))) (<= (fun_app$a (fun_app$b times$ ?v0) (numeral$ ?v2)) ?v1))) :named a96))
(assert (! (forall ((?v0 Num$)) (= (+ 1.0 (numeral$ ?v0)) (numeral$ (plus$ one$ ?v0)))) :named a97))
(assert (! (forall ((?v0 Num$)) (= (+ (numeral$ ?v0) 1.0) (numeral$ (plus$ ?v0 one$)))) :named a98))
(assert (! (forall ((?v0 Num$)) (= (= (- (numeral$ ?v0)) (- 1.0)) (= ?v0 one$))) :named a99))
(assert (! (forall ((?v0 Num$)) (= (= (- 1.0) (- (numeral$ ?v0))) (= ?v0 one$))) :named a100))
(assert (! (forall ((?v0 Num$)) (= (not (<= (- 1.0) (- (numeral$ ?v0)))) (not (= ?v0 one$)))) :named a101))
(assert (! (forall ((?v0 Real) (?v1 Num$) (?v2 Real)) (= (<= (fun_app$a (fun_app$b divide$ ?v0) (- (numeral$ ?v1))) ?v2) (<= (fun_app$a (fun_app$b times$ ?v2) (- (numeral$ ?v1))) ?v0))) :named a102))
(assert (! (forall ((?v0 Real) (?v1 Real) (?v2 Num$)) (= (<= ?v0 (fun_app$a (fun_app$b divide$ ?v1) (- (numeral$ ?v2)))) (<= ?v1 (fun_app$a (fun_app$b times$ ?v0) (- (numeral$ ?v2)))))) :named a103))
(assert (! (= (+ 1.0 1.0) 2.0) :named a104))
(assert (! (forall ((?v0 Num$)) (= (<= (numeral$ ?v0) 1.0) (fun_app$e (less_eq$ ?v0) one$))) :named a105))
(assert (! (= (+ (- 1.0) (- 1.0)) (- 2.0)) :named a106))
(assert (! (forall ((?v0 Real) (?v1 Real) (?v2 Real)) (= (+ (+ ?v0 ?v1) ?v2) (+ ?v0 (+ ?v1 ?v2)))) :named a107))
(assert (! (forall ((?v0 Real) (?v1 Real) (?v2 Real)) (= (fun_app$a (fun_app$b times$ (fun_app$a (fun_app$b times$ ?v0) ?v1)) ?v2) (fun_app$a (fun_app$b times$ ?v0) (fun_app$a (fun_app$b times$ ?v1) ?v2)))) :named a108))
(assert (! (forall ((?v0 Real_filter$) (?v1 Real_filter$) (?v2 Real_real_fun$)) (=> (less_eq$b ?v0 ?v1) (less_eq$a (bigo$ ?v1 ?v2) (bigo$ ?v0 ?v2)))) :named a109))
(assert (! (forall ((?v0 Num$)) (! (= (fun_app$e (less_eq$ ?v0) one$) (= ?v0 one$)) :pattern ((less_eq$ ?v0)))) :named a110))
(assert (! (forall ((?v0 Num$)) (= (+ 1.0 (numeral$ ?v0)) (+ (numeral$ ?v0) 1.0))) :named a111))
(assert (! (forall ((?v0 Real_filter$) (?v1 Real_filter$) (?v2 Real_real_fun$) (?v3 Real_real_fun$)) (=> (and (less_eq$b ?v0 ?v1) (member$ ?v2 (bigo$ ?v1 ?v3))) (member$ ?v2 (bigo$ ?v0 ?v3)))) :named a112))
(assert (! (forall ((?v0 Real) (?v1 Real)) (= (- (+ ?v0 ?v1)) (+ (- ?v1) (- ?v0)))) :named a113))
(assert (! (<= 1.0 1.0) :named a114))
(assert (! (not (= 1.0 (- 1.0))) :named a115))
(assert (! (= (fun_app$a abs$ 1.0) 1.0) :named a116))
(assert (! (forall ((?v0 Num$)) (! (= (numeral$ (bit1$ ?v0)) (+ (+ (numeral$ ?v0) (numeral$ ?v0)) 1.0)) :pattern ((bit1$ ?v0)))) :named a117))
(assert (! (forall ((?v0 Num$)) (= (numeral$ (bit1$ ?v0)) (+ (+ (numeral$ ?v0) (numeral$ ?v0)) 1.0))) :named a118))
(assert (! (= (= one$ one$) true) :named a119))
(assert (! (forall ((?v0 Num$)) (! (= (numeral$ (bit0$ ?v0)) (+ (numeral$ ?v0) (numeral$ ?v0))) :pattern ((bit0$ ?v0)))) :named a120))
(assert (! (forall ((?v0 Real)) (= (* ?v0 1.0) ?v0)) :named a121))
(assert (! (forall ((?v0 Real)) (= (* 1.0 ?v0) ?v0)) :named a122))
(assert (! (forall ((?v0 Num$) (?v1 Real)) (= (fun_app$a (fun_app$b times$ (numeral$ ?v0)) (- ?v1)) (fun_app$a (fun_app$b times$ ?v1) (- (numeral$ ?v0))))) :named a123))
(assert (! (forall ((?v0 Num$)) (<= 1.0 (numeral$ ?v0))) :named a124))
(assert (! (<= (- 1.0) 1.0) :named a125))
(assert (! (not (<= 1.0 (- 1.0))) :named a126))
(assert (! (= 1.0 1.0) :named a127))
(assert (! (forall ((?v0 Num$)) (not (= 1.0 (- (numeral$ ?v0))))) :named a128))
(assert (! (forall ((?v0 Num$)) (not (= (numeral$ ?v0) (- 1.0)))) :named a129))
(assert (! (forall ((?v0 Real) (?v1 Real)) (=> (= (+ (fun_app$a (fun_app$b times$ ?v0) ?v0) (fun_app$a (fun_app$b times$ ?v1) ?v1)) (fun_app$a (fun_app$b times$ ?v0) (* ?v1 2.0))) (= ?v1 ?v0))) :named a130))
(assert (! (forall ((?v0 Real) (?v1 Real)) (= (+ ?v0 (+ ?v0 ?v1)) (+ (* 2.0 ?v0) ?v1))) :named a131))
(assert (! (forall ((?v0 Real)) (= (* ?v0 2.0) (+ ?v0 ?v0))) :named a132))
(assert (! (forall ((?v0 Real)) (= (* 2.0 ?v0) (+ ?v0 ?v0))) :named a133))
(assert (! (forall ((?v0 Real_real_fun$) (?v1 Real_filter$) (?v2 Real_real_fun$) (?v3 Real_real_fun$)) (=> (and (member$ ?v0 (bigo$ ?v1 uuk$)) (member$ ?v2 (bigo$ ?v1 ?v3))) (member$ (uul$ ?v0 ?v2) (bigo$ ?v1 ?v3)))) :named a134))
(assert (! (forall ((?v0 Real_real_fun$) (?v1 Real_filter$) (?v2 Real_real_fun$) (?v3 Real_real_fun$)) (=> (and (member$ ?v0 (bigo$ ?v1 ?v2)) (member$ ?v3 (bigo$ ?v1 uuk$))) (member$ (uum$ ?v0 ?v3) (bigo$ ?v1 ?v2)))) :named a135))
(assert (! (forall ((?v0 Real_filter$) (?v1 Real_real_fun$) (?v2 Real_real_fun$) (?v3 Real_real_fun$)) (=> (and (member$ uuk$ (bigo$ ?v0 ?v1)) (member$ ?v2 (bigo$ ?v0 ?v3))) (member$ ?v2 (bigo$ ?v0 (uum$ ?v1 ?v3))))) :named a136))
(assert (! (forall ((?v0 Real_real_fun$) (?v1 Real_filter$) (?v2 Real_real_fun$) (?v3 Real_real_fun$)) (=> (and (member$ ?v0 (bigo$ ?v1 ?v2)) (member$ uuk$ (bigo$ ?v1 ?v3))) (member$ ?v0 (bigo$ ?v1 (uum$ ?v2 ?v3))))) :named a137))
(assert (! (forall ((?v0 Real_real_fun$) (?v1 Real_filter$) (?v2 Real_real_fun$)) (=> (and (member$ ?v0 (bigo$ ?v1 uuk$)) (member$ ?v2 (bigo$ ?v1 uuk$))) (member$ (uum$ ?v0 ?v2) (bigo$ ?v1 uuk$)))) :named a138))
(assert (! (forall ((?v0 Num$)) (= (numeral$ (bit0$ ?v0)) (+ (numeral$ ?v0) (numeral$ ?v0)))) :named a139))
(assert (! (forall ((?v0 Real)) (= (* (- 1.0) ?v0) (- ?v0))) :named a140))
(assert (! (forall ((?v0 Real)) (= (* ?v0 (- 1.0)) (- ?v0))) :named a141))
(assert (! (forall ((?v0 Num$)) (not (<= 1.0 (- (numeral$ ?v0))))) :named a142))
(assert (! (forall ((?v0 Num$)) (not (<= (numeral$ ?v0) (- 1.0)))) :named a143))
(assert (! (forall ((?v0 Num$)) (<= (- (numeral$ ?v0)) (- 1.0))) :named a144))
(assert (! (forall ((?v0 Num$)) (<= (- 1.0) (numeral$ ?v0))) :named a145))
(assert (! (forall ((?v0 Num$)) (<= (- (numeral$ ?v0)) 1.0)) :named a146))
(assert (! (= (- 1.0) (- 1.0)) :named a147))
(assert (! (forall ((?v0 Num$) (?v1 Num$)) (not (= (numeral$ ?v0) (- (numeral$ ?v1))))) :named a148))
(assert (! (forall ((?v0 Num$) (?v1 Num$)) (not (= (- (numeral$ ?v0)) (numeral$ ?v1)))) :named a149))
(assert (! (forall ((?v0 Num$)) (not (= one$ (bit0$ ?v0)))) :named a150))
(assert (! (forall ((?v0 Real_real_fun$) (?v1 Real_real_fun$) (?v2 Real_filter$)) (=> (eventually$ (uun$ ?v0 ?v1) ?v2) (= (bigo$ ?v2 ?v0) (bigo$ ?v2 ?v1)))) :named a151))
(assert (! (forall ((?v0 Real_real_fun$) (?v1 Real_real_fun$) (?v2 Real_filter$) (?v3 Real_real_fun$) (?v4 Real_real_fun$)) (=> (and (eventually$ (uun$ ?v0 ?v1) ?v2) (eventually$ (uun$ ?v3 ?v4) ?v2)) (= (member$ ?v0 (bigo$ ?v2 ?v3)) (member$ ?v1 (bigo$ ?v2 ?v4))))) :named a152))
(assert (! (forall ((?v0 Real_real_fun$) (?v1 Real_real_fun$) (?v2 Real_filter$) (?v3 Real_real_fun$)) (=> (eventually$ (uun$ ?v0 ?v1) ?v2) (= (member$ ?v0 (bigo$ ?v2 ?v3)) (member$ ?v1 (bigo$ ?v2 ?v3))))) :named a153))
(assert (! (forall ((?v0 Num$) (?v1 Num$)) (not (= (bit0$ ?v0) (bit1$ ?v1)))) :named a154))
(assert (! (forall ((?v0 Num$)) (not (= one$ (bit1$ ?v0)))) :named a155))
(assert (! (forall ((?v0 Real_real_fun$) (?v1 Real_filter$) (?v2 Real_real_fun$) (?v3 Real_real_fun$)) (=> (and (member$ ?v0 (bigo$ ?v1 ?v2)) (member$ ?v3 (bigo$ ?v1 ?v2))) (member$ (uuo$ ?v0 ?v3) (bigo$ ?v1 ?v2)))) :named a156))
(assert (! (forall ((?v0 Real_real_fun$) (?v1 Real_filter$) (?v2 Real_real_fun$) (?v3 Real_real_fun$) (?v4 Real_real_fun$)) (=> (and (member$ ?v0 (bigo$ ?v1 ?v2)) (member$ ?v3 (bigo$ ?v1 ?v4))) (member$ (uum$ ?v0 ?v3) (bigo$ ?v1 (uum$ ?v2 ?v4))))) :named a157))
(assert (! (forall ((?v0 Real_real_fun$) (?v1 Real_filter$) (?v2 Real_real_fun$) (?v3 Real_real_fun$)) (=> (member$ ?v0 (bigo$ ?v1 ?v2)) (member$ (uul$ ?v0 ?v3) (bigo$ ?v1 (uul$ ?v2 ?v3))))) :named a158))
(assert (! (forall ((?v0 Real_real_fun$) (?v1 Real_filter$) (?v2 Real_real_fun$) (?v3 Real_real_fun$)) (=> (member$ ?v0 (bigo$ ?v1 ?v2)) (member$ (uum$ ?v0 ?v3) (bigo$ ?v1 (uum$ ?v2 ?v3))))) :named a159))
(assert (! (forall ((?v0 Real) (?v1 Real_filter$)) (member$ (fun_app$b uup$ ?v0) (bigo$ ?v1 uuk$))) :named a160))
(assert (! (forall ((?v0 Num$) (?v1 Num$)) (not (<= (numeral$ ?v0) (- (numeral$ ?v1))))) :named a161))
(assert (! (forall ((?v0 Num$) (?v1 Num$)) (<= (- (numeral$ ?v0)) (numeral$ ?v1))) :named a162))
(assert (! (forall ((?v0 Real)) (= (fun_app$a (fun_app$b divide$ ?v0) 1.0) ?v0)) :named a163))
(assert (! (forall ((?v0 Num$)) (=> (and (=> (= ?v0 one$) false) (and (forall ((?v1 Num$)) (=> (= ?v0 (bit0$ ?v1)) false)) (forall ((?v1 Num$)) (=> (= ?v0 (bit1$ ?v1)) false)))) false)) :named a164))
(assert (! (<= (fun_app$a (fun_app$b divide$ 2.0) 3.0) (fun_app$a ln$ 2.0)) :named a165))
(assert (! (forall ((?v0 Real)) (=> (<= 2.0 ?v0) (< (fun_app$a primes_pi$ ?v0) (fun_app$a (fun_app$b divide$ (fun_app$a (fun_app$b times$ (* 3.0 (+ (fun_app$a exp$ (- 1.0)) (fun_app$a ln$ 2.0)))) ?v0)) (fun_app$a ln$ ?v0))))) :named a166))
(assert (! (forall ((?v0 Real)) (=> (<= 2.0 ?v0) (< (fun_app$a (fun_app$b times$ (fun_app$a (fun_app$b divide$ 1.0) 6.0)) (fun_app$a (fun_app$b divide$ ?v0) (fun_app$a ln$ ?v0))) (fun_app$a primes_pi$ ?v0)))) :named a167))
(assert (! (forall ((?v0 Real)) (=> (<= 2.0 ?v0) (< (fun_app$a primes_pi$ ?v0) (fun_app$a (fun_app$b times$ (fun_app$a (fun_app$b divide$ 443.0) 139.0)) (fun_app$a (fun_app$b divide$ ?v0) (fun_app$a ln$ ?v0)))))) :named a168))
(assert (! (forall ((?v0 Real)) (= (fun_app$a (fun_app$b divide$ ?v0) (- 1.0)) (- ?v0))) :named a169))
(assert (! (forall ((?v0 Real) (?v1 Real)) (= (= (- ?v0) (- ?v1)) (= ?v0 ?v1))) :named a170))
(assert (! (forall ((?v0 Real)) (= (- (- ?v0)) ?v0)) :named a171))
(assert (! (forall ((?v0 Num$) (?v1 Num$)) (= (< (numeral$ ?v0) (numeral$ ?v1)) (less$ ?v0 ?v1))) :named a172))
(assert (! (forall ((?v0 Real) (?v1 Real) (?v2 Real)) (= (fun_app$a (fun_app$b times$ ?v0) (fun_app$a (fun_app$b divide$ ?v1) ?v2)) (fun_app$a (fun_app$b divide$ (fun_app$a (fun_app$b times$ ?v0) ?v1)) ?v2))) :named a173))
(assert (! (forall ((?v0 Real) (?v1 Real) (?v2 Real)) (= (fun_app$a (fun_app$b divide$ ?v0) (fun_app$a (fun_app$b divide$ ?v1) ?v2)) (fun_app$a (fun_app$b divide$ (fun_app$a (fun_app$b times$ ?v0) ?v2)) ?v1))) :named a174))
(assert (! (forall ((?v0 Real) (?v1 Real) (?v2 Real)) (= (fun_app$a (fun_app$b divide$ (fun_app$a (fun_app$b divide$ ?v0) ?v1)) ?v2) (fun_app$a (fun_app$b divide$ ?v0) (fun_app$a (fun_app$b times$ ?v1) ?v2)))) :named a175))
(assert (! (forall ((?v0 Real) (?v1 Real) (?v2 Real)) (= (fun_app$a (fun_app$b times$ (fun_app$a (fun_app$b divide$ ?v0) ?v1)) ?v2) (fun_app$a (fun_app$b divide$ (fun_app$a (fun_app$b times$ ?v0) ?v2)) ?v1))) :named a176))
(assert (! (forall ((?v0 Real) (?v1 Real)) (= (fun_app$a (fun_app$b divide$ (- ?v0)) ?v1) (- (fun_app$a (fun_app$b divide$ ?v0) ?v1)))) :named a177))
(assert (! (forall ((?v0 Real) (?v1 Real)) (= (fun_app$a (fun_app$b divide$ ?v0) (- ?v1)) (- (fun_app$a (fun_app$b divide$ ?v0) ?v1)))) :named a178))
(assert (! (forall ((?v0 Real) (?v1 Real)) (= (fun_app$a abs$ (fun_app$a (fun_app$b divide$ ?v0) ?v1)) (fun_app$a (fun_app$b divide$ (fun_app$a abs$ ?v0)) (fun_app$a abs$ ?v1)))) :named a179))
(assert (! (forall ((?v0 Num$) (?v1 Num$)) (! (= (plus$ (bit0$ ?v0) (bit0$ ?v1)) (bit0$ (plus$ ?v0 ?v1))) :pattern ((plus$ (bit0$ ?v0) (bit0$ ?v1))))) :named a180))
(assert (! (forall ((?v0 Num$) (?v1 Num$)) (! (= (fun_app$f (times$a (bit0$ ?v0)) (bit0$ ?v1)) (bit0$ (bit0$ (fun_app$f (times$a ?v0) ?v1)))) :pattern ((fun_app$f (times$a (bit0$ ?v0)) (bit0$ ?v1))))) :named a181))
(assert (! (forall ((?v0 Num$)) (! (= (fun_app$f (times$a one$) ?v0) ?v0) :pattern ((fun_app$f (times$a one$) ?v0)))) :named a182))
(assert (! (forall ((?v0 Num$)) (! (= (fun_app$f (times$a ?v0) one$) ?v0) :pattern ((times$a ?v0)))) :named a183))
(assert (! (forall ((?v0 Real)) (=> (<= 2.0 ?v0) (< (fun_app$a primes_pi$ ?v0) (* 4.0 (fun_app$a (fun_app$b divide$ ?v0) (fun_app$a ln$ ?v0)))))) :named a184))
(assert (! (forall ((?v0 Num$) (?v1 Num$)) (= (< (- (numeral$ ?v0)) (- (numeral$ ?v1))) (less$ ?v1 ?v0))) :named a185))
(assert (! (= (plus$ one$ one$) (bit0$ one$)) :named a186))
(assert (! (forall ((?v0 Num$)) (! (= (fun_app$f (times$a (bit0$ one$)) ?v0) (bit0$ ?v0)) :pattern ((fun_app$f (times$a (bit0$ one$)) ?v0)))) :named a187))
(assert (! (forall ((?v0 Num$) (?v1 Num$)) (! (= (plus$ (bit1$ ?v0) (bit0$ ?v1)) (bit1$ (plus$ ?v0 ?v1))) :pattern ((plus$ (bit1$ ?v0) (bit0$ ?v1))))) :named a188))
(assert (! (forall ((?v0 Num$) (?v1 Num$)) (! (= (plus$ (bit0$ ?v0) (bit1$ ?v1)) (bit1$ (plus$ ?v0 ?v1))) :pattern ((plus$ (bit0$ ?v0) (bit1$ ?v1))))) :named a189))
(assert (! (forall ((?v0 Num$) (?v1 Num$)) (! (= (fun_app$f (times$a (bit1$ ?v0)) (bit0$ ?v1)) (bit0$ (fun_app$f (times$a (bit1$ ?v0)) ?v1))) :pattern ((fun_app$f (times$a (bit1$ ?v0)) (bit0$ ?v1))))) :named a190))
(assert (! (forall ((?v0 Num$) (?v1 Num$)) (! (= (fun_app$f (times$a (bit0$ ?v0)) (bit1$ ?v1)) (bit0$ (fun_app$f (times$a ?v0) (bit1$ ?v1)))) :pattern ((fun_app$f (times$a (bit0$ ?v0)) (bit1$ ?v1))))) :named a191))
(assert (! (forall ((?v0 Num$)) (= (< 1.0 (numeral$ ?v0)) (less$ one$ ?v0))) :named a192))
(assert (! (forall ((?v0 Real) (?v1 Real) (?v2 Num$)) (= (< ?v0 (fun_app$a (fun_app$b divide$ ?v1) (numeral$ ?v2))) (< (fun_app$a (fun_app$b times$ ?v0) (numeral$ ?v2)) ?v1))) :named a193))
(assert (! (forall ((?v0 Real) (?v1 Num$) (?v2 Real)) (= (< (fun_app$a (fun_app$b divide$ ?v0) (numeral$ ?v1)) ?v2) (< ?v0 (fun_app$a (fun_app$b times$ ?v2) (numeral$ ?v1))))) :named a194))
(assert (! (forall ((?v0 Num$) (?v1 Num$)) (! (= (plus$ (bit1$ ?v0) (bit1$ ?v1)) (bit0$ (plus$ (plus$ ?v0 ?v1) one$))) :pattern ((plus$ (bit1$ ?v0) (bit1$ ?v1))))) :named a195))
(assert (! (forall ((?v0 Num$)) (! (= (plus$ (bit1$ ?v0) one$) (bit0$ (plus$ ?v0 one$))) :pattern ((bit1$ ?v0)))) :named a196))
(assert (! (forall ((?v0 Num$)) (! (= (plus$ (bit0$ ?v0) one$) (bit1$ ?v0)) :pattern ((bit0$ ?v0)))) :named a197))
(assert (! (forall ((?v0 Num$)) (! (= (plus$ one$ (bit1$ ?v0)) (bit0$ (plus$ ?v0 one$))) :pattern ((bit1$ ?v0)))) :named a198))
(assert (! (forall ((?v0 Num$)) (! (= (plus$ one$ (bit0$ ?v0)) (bit1$ ?v0)) :pattern ((bit0$ ?v0)))) :named a199))
(assert (! (forall ((?v0 Num$) (?v1 Num$)) (! (= (fun_app$f (times$a (bit1$ ?v0)) (bit1$ ?v1)) (bit1$ (plus$ (plus$ ?v0 ?v1) (bit0$ (fun_app$f (times$a ?v0) ?v1))))) :pattern ((fun_app$f (times$a (bit1$ ?v0)) (bit1$ ?v1))))) :named a200))
(check-sat)
;- (get-unsat-core)
